% ----DATA VARIABLES----

t=8;%number of attributes
k=5;%max length of the support set
n=6;%number of positive instances
m=6;%number of negative instances
c=3;%number of atMostOne Constraints

% ----OMEGAS----

omegap= [| 1, 1, 1, 0, 1, 0, 0, 1|
 0, 1, 0, 1, 0, 1, 1, 1|
 1, 1, 0, 0, 0, 0, 0, 0|
 0, 0, 0, 0, 1, 1, 0, 1|
 0, 1, 1, 1, 0, 0, 1, 1|
 0, 0, 1, 1, 1, 1, 1, 0|];

omegan= [| 1, 0, 1, 1, 1, 1, 0, 1|
 1, 0, 0, 0, 0, 1, 0, 0|
 1, 0, 0, 0, 1, 0, 1, 0|
 0, 0, 1, 0, 1, 1, 1, 0|
 0, 0, 1, 1, 1, 0, 0, 0|
 0, 0, 1, 0, 0, 0, 0, 1|];

% ----CONSTRAINS----

atMostOne=[{7, 5, 3}, {3}, {6, 3}];